
(set-option :produce-models true)
(set-option :inline-size-limit 10000)

(declare-const var0 String)

(push 1)
(assert (str.in.re var0 (re.* (re.range "\x01" "\xff"))))
(assert (str.in.re var0 (re.union (re.union (re.union (re.union (re.++ re.begin-anchor (re.++ ((_ re.capture 1) (re.++ ((_ re.loop 0 0) (re.diff (re.range "\x01" "\xff") (str.to.re "\n"))) (re.++ ((_ re.capture 2) (re.union ((_ re.capture 3) (re.++ (re.union (re.range "a" "z") (re.range "A" "Z")) (re.inter (re.diff (re.range "\x01" "\xff") (re.range "a" "z")) (re.diff (re.range "\x01" "\xff") (re.range "A" "Z"))))) ((_ re.capture 4) (re.++ (re.inter (re.diff (re.range "\x01" "\xff") (re.range "a" "z")) (re.diff (re.range "\x01" "\xff") (re.range "A" "Z"))) (re.union (re.range "a" "z") (re.range "A" "Z")))))) ((_ re.loop 0 4) (re.diff (re.range "\x01" "\xff") (str.to.re "\n")))))) re.all)) (re.++ ((_ re.capture 5) (re.++ (re.++ (re.*? re.allchar) ((_ re.loop 0 1) (re.diff (re.range "\x01" "\xff") (str.to.re "\n")))) (re.++ ((_ re.capture 6) (re.union ((_ re.capture 7) (re.++ (re.union (re.range "a" "z") (re.range "A" "Z")) (re.inter (re.diff (re.range "\x01" "\xff") (re.range "a" "z")) (re.diff (re.range "\x01" "\xff") (re.range "A" "Z"))))) ((_ re.capture 8) (re.++ (re.inter (re.diff (re.range "\x01" "\xff") (re.range "a" "z")) (re.diff (re.range "\x01" "\xff") (re.range "A" "Z"))) (re.union (re.range "a" "z") (re.range "A" "Z")))))) ((_ re.loop 0 3) (re.diff (re.range "\x01" "\xff") (str.to.re "\n")))))) re.all)) (re.++ ((_ re.capture 9) (re.++ (re.++ (re.*? re.allchar) ((_ re.loop 0 2) (re.diff (re.range "\x01" "\xff") (str.to.re "\n")))) (re.++ ((_ re.capture 10) (re.union ((_ re.capture 11) (re.++ (re.union (re.range "a" "z") (re.range "A" "Z")) (re.inter (re.diff (re.range "\x01" "\xff") (re.range "a" "z")) (re.diff (re.range "\x01" "\xff") (re.range "A" "Z"))))) ((_ re.capture 12) (re.++ (re.inter (re.diff (re.range "\x01" "\xff") (re.range "a" "z")) (re.diff (re.range "\x01" "\xff") (re.range "A" "Z"))) (re.union (re.range "a" "z") (re.range "A" "Z")))))) ((_ re.loop 0 2) (re.diff (re.range "\x01" "\xff") (str.to.re "\n")))))) re.all)) (re.++ ((_ re.capture 13) (re.++ (re.++ (re.*? re.allchar) ((_ re.loop 0 3) (re.diff (re.range "\x01" "\xff") (str.to.re "\n")))) (re.++ ((_ re.capture 14) (re.union ((_ re.capture 15) (re.++ (re.union (re.range "a" "z") (re.range "A" "Z")) (re.inter (re.diff (re.range "\x01" "\xff") (re.range "a" "z")) (re.diff (re.range "\x01" "\xff") (re.range "A" "Z"))))) ((_ re.capture 16) (re.++ (re.inter (re.diff (re.range "\x01" "\xff") (re.range "a" "z")) (re.diff (re.range "\x01" "\xff") (re.range "A" "Z"))) (re.union (re.range "a" "z") (re.range "A" "Z")))))) ((_ re.loop 0 1) (re.diff (re.range "\x01" "\xff") (str.to.re "\n")))))) re.all)) (re.++ ((_ re.capture 17) (re.++ (re.++ (re.*? re.allchar) ((_ re.loop 0 4) (re.diff (re.range "\x01" "\xff") (str.to.re "\n")))) (re.++ ((_ re.capture 18) (re.union ((_ re.capture 19) (re.++ (re.union (re.range "a" "z") (re.range "A" "Z")) (re.inter (re.diff (re.range "\x01" "\xff") (re.range "a" "z")) (re.diff (re.range "\x01" "\xff") (re.range "A" "Z"))))) ((_ re.capture 20) (re.++ (re.inter (re.diff (re.range "\x01" "\xff") (re.range "a" "z")) (re.diff (re.range "\x01" "\xff") (re.range "A" "Z"))) (re.union (re.range "a" "z") (re.range "A" "Z")))))) ((_ re.loop 0 0) (re.diff (re.range "\x01" "\xff") (str.to.re "\n")))))) re.end-anchor))))	; match!==null
(assert (not (str.in.re ((_ str.extract 1) var0 (re.union (re.union (re.union (re.union (re.++ re.begin-anchor (re.++ ((_ re.capture 1) (re.++ ((_ re.loop 0 0) (re.diff (re.range "\x01" "\xff") (str.to.re "\n"))) (re.++ ((_ re.capture 2) (re.union ((_ re.capture 3) (re.++ (re.union (re.range "a" "z") (re.range "A" "Z")) (re.inter (re.diff (re.range "\x01" "\xff") (re.range "a" "z")) (re.diff (re.range "\x01" "\xff") (re.range "A" "Z"))))) ((_ re.capture 4) (re.++ (re.inter (re.diff (re.range "\x01" "\xff") (re.range "a" "z")) (re.diff (re.range "\x01" "\xff") (re.range "A" "Z"))) (re.union (re.range "a" "z") (re.range "A" "Z")))))) ((_ re.loop 0 4) (re.diff (re.range "\x01" "\xff") (str.to.re "\n")))))) re.all)) (re.++ ((_ re.capture 5) (re.++ (re.++ (re.*? re.allchar) ((_ re.loop 0 1) (re.diff (re.range "\x01" "\xff") (str.to.re "\n")))) (re.++ ((_ re.capture 6) (re.union ((_ re.capture 7) (re.++ (re.union (re.range "a" "z") (re.range "A" "Z")) (re.inter (re.diff (re.range "\x01" "\xff") (re.range "a" "z")) (re.diff (re.range "\x01" "\xff") (re.range "A" "Z"))))) ((_ re.capture 8) (re.++ (re.inter (re.diff (re.range "\x01" "\xff") (re.range "a" "z")) (re.diff (re.range "\x01" "\xff") (re.range "A" "Z"))) (re.union (re.range "a" "z") (re.range "A" "Z")))))) ((_ re.loop 0 3) (re.diff (re.range "\x01" "\xff") (str.to.re "\n")))))) re.all)) (re.++ ((_ re.capture 9) (re.++ (re.++ (re.*? re.allchar) ((_ re.loop 0 2) (re.diff (re.range "\x01" "\xff") (str.to.re "\n")))) (re.++ ((_ re.capture 10) (re.union ((_ re.capture 11) (re.++ (re.union (re.range "a" "z") (re.range "A" "Z")) (re.inter (re.diff (re.range "\x01" "\xff") (re.range "a" "z")) (re.diff (re.range "\x01" "\xff") (re.range "A" "Z"))))) ((_ re.capture 12) (re.++ (re.inter (re.diff (re.range "\x01" "\xff") (re.range "a" "z")) (re.diff (re.range "\x01" "\xff") (re.range "A" "Z"))) (re.union (re.range "a" "z") (re.range "A" "Z")))))) ((_ re.loop 0 2) (re.diff (re.range "\x01" "\xff") (str.to.re "\n")))))) re.all)) (re.++ ((_ re.capture 13) (re.++ (re.++ (re.*? re.allchar) ((_ re.loop 0 3) (re.diff (re.range "\x01" "\xff") (str.to.re "\n")))) (re.++ ((_ re.capture 14) (re.union ((_ re.capture 15) (re.++ (re.union (re.range "a" "z") (re.range "A" "Z")) (re.inter (re.diff (re.range "\x01" "\xff") (re.range "a" "z")) (re.diff (re.range "\x01" "\xff") (re.range "A" "Z"))))) ((_ re.capture 16) (re.++ (re.inter (re.diff (re.range "\x01" "\xff") (re.range "a" "z")) (re.diff (re.range "\x01" "\xff") (re.range "A" "Z"))) (re.union (re.range "a" "z") (re.range "A" "Z")))))) ((_ re.loop 0 1) (re.diff (re.range "\x01" "\xff") (str.to.re "\n")))))) re.all)) (re.++ ((_ re.capture 17) (re.++ (re.++ (re.*? re.allchar) ((_ re.loop 0 4) (re.diff (re.range "\x01" "\xff") (str.to.re "\n")))) (re.++ ((_ re.capture 18) (re.union ((_ re.capture 19) (re.++ (re.union (re.range "a" "z") (re.range "A" "Z")) (re.inter (re.diff (re.range "\x01" "\xff") (re.range "a" "z")) (re.diff (re.range "\x01" "\xff") (re.range "A" "Z"))))) ((_ re.capture 20) (re.++ (re.inter (re.diff (re.range "\x01" "\xff") (re.range "a" "z")) (re.diff (re.range "\x01" "\xff") (re.range "A" "Z"))) (re.union (re.range "a" "z") (re.range "A" "Z")))))) ((_ re.loop 0 0) (re.diff (re.range "\x01" "\xff") (str.to.re "\n")))))) re.end-anchor))) (str.to.re "\x00"))))
;match[1]!==null
(assert (str.in.re ((_ str.extract 1) var0 (re.union (re.union (re.union (re.union (re.++ re.begin-anchor (re.++ ((_ re.capture 1) (re.++ ((_ re.loop 0 0) (re.diff (re.range "\x01" "\xff") (str.to.re "\n"))) (re.++ ((_ re.capture 2) (re.union ((_ re.capture 3) (re.++ (re.union (re.range "a" "z") (re.range "A" "Z")) (re.inter (re.diff (re.range "\x01" "\xff") (re.range "a" "z")) (re.diff (re.range "\x01" "\xff") (re.range "A" "Z"))))) ((_ re.capture 4) (re.++ (re.inter (re.diff (re.range "\x01" "\xff") (re.range "a" "z")) (re.diff (re.range "\x01" "\xff") (re.range "A" "Z"))) (re.union (re.range "a" "z") (re.range "A" "Z")))))) ((_ re.loop 0 4) (re.diff (re.range "\x01" "\xff") (str.to.re "\n")))))) re.all)) (re.++ ((_ re.capture 5) (re.++ (re.++ (re.*? re.allchar) ((_ re.loop 0 1) (re.diff (re.range "\x01" "\xff") (str.to.re "\n")))) (re.++ ((_ re.capture 6) (re.union ((_ re.capture 7) (re.++ (re.union (re.range "a" "z") (re.range "A" "Z")) (re.inter (re.diff (re.range "\x01" "\xff") (re.range "a" "z")) (re.diff (re.range "\x01" "\xff") (re.range "A" "Z"))))) ((_ re.capture 8) (re.++ (re.inter (re.diff (re.range "\x01" "\xff") (re.range "a" "z")) (re.diff (re.range "\x01" "\xff") (re.range "A" "Z"))) (re.union (re.range "a" "z") (re.range "A" "Z")))))) ((_ re.loop 0 3) (re.diff (re.range "\x01" "\xff") (str.to.re "\n")))))) re.all)) (re.++ ((_ re.capture 9) (re.++ (re.++ (re.*? re.allchar) ((_ re.loop 0 2) (re.diff (re.range "\x01" "\xff") (str.to.re "\n")))) (re.++ ((_ re.capture 10) (re.union ((_ re.capture 11) (re.++ (re.union (re.range "a" "z") (re.range "A" "Z")) (re.inter (re.diff (re.range "\x01" "\xff") (re.range "a" "z")) (re.diff (re.range "\x01" "\xff") (re.range "A" "Z"))))) ((_ re.capture 12) (re.++ (re.inter (re.diff (re.range "\x01" "\xff") (re.range "a" "z")) (re.diff (re.range "\x01" "\xff") (re.range "A" "Z"))) (re.union (re.range "a" "z") (re.range "A" "Z")))))) ((_ re.loop 0 2) (re.diff (re.range "\x01" "\xff") (str.to.re "\n")))))) re.all)) (re.++ ((_ re.capture 13) (re.++ (re.++ (re.*? re.allchar) ((_ re.loop 0 3) (re.diff (re.range "\x01" "\xff") (str.to.re "\n")))) (re.++ ((_ re.capture 14) (re.union ((_ re.capture 15) (re.++ (re.union (re.range "a" "z") (re.range "A" "Z")) (re.inter (re.diff (re.range "\x01" "\xff") (re.range "a" "z")) (re.diff (re.range "\x01" "\xff") (re.range "A" "Z"))))) ((_ re.capture 16) (re.++ (re.inter (re.diff (re.range "\x01" "\xff") (re.range "a" "z")) (re.diff (re.range "\x01" "\xff") (re.range "A" "Z"))) (re.union (re.range "a" "z") (re.range "A" "Z")))))) ((_ re.loop 0 1) (re.diff (re.range "\x01" "\xff") (str.to.re "\n")))))) re.all)) (re.++ ((_ re.capture 17) (re.++ (re.++ (re.*? re.allchar) ((_ re.loop 0 4) (re.diff (re.range "\x01" "\xff") (str.to.re "\n")))) (re.++ ((_ re.capture 18) (re.union ((_ re.capture 19) (re.++ (re.union (re.range "a" "z") (re.range "A" "Z")) (re.inter (re.diff (re.range "\x01" "\xff") (re.range "a" "z")) (re.diff (re.range "\x01" "\xff") (re.range "A" "Z"))))) ((_ re.capture 20) (re.++ (re.inter (re.diff (re.range "\x01" "\xff") (re.range "a" "z")) (re.diff (re.range "\x01" "\xff") (re.range "A" "Z"))) (re.union (re.range "a" "z") (re.range "A" "Z")))))) ((_ re.loop 0 0) (re.diff (re.range "\x01" "\xff") (str.to.re "\n")))))) re.end-anchor))) (re.++ re.all(re.+ (re.range "a" "z")) re.all) ))
;/[a-z]+/.test(match[1]) == true
(check-sat)
(get-model)
(pop 1)
(push 1)
(assert (str.in.re var0 (re.* (re.range "\x01" "\xff"))))
(assert (str.in.re var0 (re.union (re.union (re.union (re.union (re.++ re.begin-anchor (re.++ ((_ re.capture 1) (re.++ ((_ re.loop 0 0) (re.diff (re.range "\x01" "\xff") (str.to.re "\n"))) (re.++ ((_ re.capture 2) (re.union ((_ re.capture 3) (re.++ (re.union (re.range "a" "z") (re.range "A" "Z")) (re.inter (re.diff (re.range "\x01" "\xff") (re.range "a" "z")) (re.diff (re.range "\x01" "\xff") (re.range "A" "Z"))))) ((_ re.capture 4) (re.++ (re.inter (re.diff (re.range "\x01" "\xff") (re.range "a" "z")) (re.diff (re.range "\x01" "\xff") (re.range "A" "Z"))) (re.union (re.range "a" "z") (re.range "A" "Z")))))) ((_ re.loop 0 4) (re.diff (re.range "\x01" "\xff") (str.to.re "\n")))))) re.all)) (re.++ ((_ re.capture 5) (re.++ (re.++ (re.*? re.allchar) ((_ re.loop 0 1) (re.diff (re.range "\x01" "\xff") (str.to.re "\n")))) (re.++ ((_ re.capture 6) (re.union ((_ re.capture 7) (re.++ (re.union (re.range "a" "z") (re.range "A" "Z")) (re.inter (re.diff (re.range "\x01" "\xff") (re.range "a" "z")) (re.diff (re.range "\x01" "\xff") (re.range "A" "Z"))))) ((_ re.capture 8) (re.++ (re.inter (re.diff (re.range "\x01" "\xff") (re.range "a" "z")) (re.diff (re.range "\x01" "\xff") (re.range "A" "Z"))) (re.union (re.range "a" "z") (re.range "A" "Z")))))) ((_ re.loop 0 3) (re.diff (re.range "\x01" "\xff") (str.to.re "\n")))))) re.all)) (re.++ ((_ re.capture 9) (re.++ (re.++ (re.*? re.allchar) ((_ re.loop 0 2) (re.diff (re.range "\x01" "\xff") (str.to.re "\n")))) (re.++ ((_ re.capture 10) (re.union ((_ re.capture 11) (re.++ (re.union (re.range "a" "z") (re.range "A" "Z")) (re.inter (re.diff (re.range "\x01" "\xff") (re.range "a" "z")) (re.diff (re.range "\x01" "\xff") (re.range "A" "Z"))))) ((_ re.capture 12) (re.++ (re.inter (re.diff (re.range "\x01" "\xff") (re.range "a" "z")) (re.diff (re.range "\x01" "\xff") (re.range "A" "Z"))) (re.union (re.range "a" "z") (re.range "A" "Z")))))) ((_ re.loop 0 2) (re.diff (re.range "\x01" "\xff") (str.to.re "\n")))))) re.all)) (re.++ ((_ re.capture 13) (re.++ (re.++ (re.*? re.allchar) ((_ re.loop 0 3) (re.diff (re.range "\x01" "\xff") (str.to.re "\n")))) (re.++ ((_ re.capture 14) (re.union ((_ re.capture 15) (re.++ (re.union (re.range "a" "z") (re.range "A" "Z")) (re.inter (re.diff (re.range "\x01" "\xff") (re.range "a" "z")) (re.diff (re.range "\x01" "\xff") (re.range "A" "Z"))))) ((_ re.capture 16) (re.++ (re.inter (re.diff (re.range "\x01" "\xff") (re.range "a" "z")) (re.diff (re.range "\x01" "\xff") (re.range "A" "Z"))) (re.union (re.range "a" "z") (re.range "A" "Z")))))) ((_ re.loop 0 1) (re.diff (re.range "\x01" "\xff") (str.to.re "\n")))))) re.all)) (re.++ ((_ re.capture 17) (re.++ (re.++ (re.*? re.allchar) ((_ re.loop 0 4) (re.diff (re.range "\x01" "\xff") (str.to.re "\n")))) (re.++ ((_ re.capture 18) (re.union ((_ re.capture 19) (re.++ (re.union (re.range "a" "z") (re.range "A" "Z")) (re.inter (re.diff (re.range "\x01" "\xff") (re.range "a" "z")) (re.diff (re.range "\x01" "\xff") (re.range "A" "Z"))))) ((_ re.capture 20) (re.++ (re.inter (re.diff (re.range "\x01" "\xff") (re.range "a" "z")) (re.diff (re.range "\x01" "\xff") (re.range "A" "Z"))) (re.union (re.range "a" "z") (re.range "A" "Z")))))) ((_ re.loop 0 0) (re.diff (re.range "\x01" "\xff") (str.to.re "\n")))))) re.end-anchor))))	; match!==null
(assert (not (str.in.re ((_ str.extract 1) var0 (re.union (re.union (re.union (re.union (re.++ re.begin-anchor (re.++ ((_ re.capture 1) (re.++ ((_ re.loop 0 0) (re.diff (re.range "\x01" "\xff") (str.to.re "\n"))) (re.++ ((_ re.capture 2) (re.union ((_ re.capture 3) (re.++ (re.union (re.range "a" "z") (re.range "A" "Z")) (re.inter (re.diff (re.range "\x01" "\xff") (re.range "a" "z")) (re.diff (re.range "\x01" "\xff") (re.range "A" "Z"))))) ((_ re.capture 4) (re.++ (re.inter (re.diff (re.range "\x01" "\xff") (re.range "a" "z")) (re.diff (re.range "\x01" "\xff") (re.range "A" "Z"))) (re.union (re.range "a" "z") (re.range "A" "Z")))))) ((_ re.loop 0 4) (re.diff (re.range "\x01" "\xff") (str.to.re "\n")))))) re.all)) (re.++ ((_ re.capture 5) (re.++ (re.++ (re.*? re.allchar) ((_ re.loop 0 1) (re.diff (re.range "\x01" "\xff") (str.to.re "\n")))) (re.++ ((_ re.capture 6) (re.union ((_ re.capture 7) (re.++ (re.union (re.range "a" "z") (re.range "A" "Z")) (re.inter (re.diff (re.range "\x01" "\xff") (re.range "a" "z")) (re.diff (re.range "\x01" "\xff") (re.range "A" "Z"))))) ((_ re.capture 8) (re.++ (re.inter (re.diff (re.range "\x01" "\xff") (re.range "a" "z")) (re.diff (re.range "\x01" "\xff") (re.range "A" "Z"))) (re.union (re.range "a" "z") (re.range "A" "Z")))))) ((_ re.loop 0 3) (re.diff (re.range "\x01" "\xff") (str.to.re "\n")))))) re.all)) (re.++ ((_ re.capture 9) (re.++ (re.++ (re.*? re.allchar) ((_ re.loop 0 2) (re.diff (re.range "\x01" "\xff") (str.to.re "\n")))) (re.++ ((_ re.capture 10) (re.union ((_ re.capture 11) (re.++ (re.union (re.range "a" "z") (re.range "A" "Z")) (re.inter (re.diff (re.range "\x01" "\xff") (re.range "a" "z")) (re.diff (re.range "\x01" "\xff") (re.range "A" "Z"))))) ((_ re.capture 12) (re.++ (re.inter (re.diff (re.range "\x01" "\xff") (re.range "a" "z")) (re.diff (re.range "\x01" "\xff") (re.range "A" "Z"))) (re.union (re.range "a" "z") (re.range "A" "Z")))))) ((_ re.loop 0 2) (re.diff (re.range "\x01" "\xff") (str.to.re "\n")))))) re.all)) (re.++ ((_ re.capture 13) (re.++ (re.++ (re.*? re.allchar) ((_ re.loop 0 3) (re.diff (re.range "\x01" "\xff") (str.to.re "\n")))) (re.++ ((_ re.capture 14) (re.union ((_ re.capture 15) (re.++ (re.union (re.range "a" "z") (re.range "A" "Z")) (re.inter (re.diff (re.range "\x01" "\xff") (re.range "a" "z")) (re.diff (re.range "\x01" "\xff") (re.range "A" "Z"))))) ((_ re.capture 16) (re.++ (re.inter (re.diff (re.range "\x01" "\xff") (re.range "a" "z")) (re.diff (re.range "\x01" "\xff") (re.range "A" "Z"))) (re.union (re.range "a" "z") (re.range "A" "Z")))))) ((_ re.loop 0 1) (re.diff (re.range "\x01" "\xff") (str.to.re "\n")))))) re.all)) (re.++ ((_ re.capture 17) (re.++ (re.++ (re.*? re.allchar) ((_ re.loop 0 4) (re.diff (re.range "\x01" "\xff") (str.to.re "\n")))) (re.++ ((_ re.capture 18) (re.union ((_ re.capture 19) (re.++ (re.union (re.range "a" "z") (re.range "A" "Z")) (re.inter (re.diff (re.range "\x01" "\xff") (re.range "a" "z")) (re.diff (re.range "\x01" "\xff") (re.range "A" "Z"))))) ((_ re.capture 20) (re.++ (re.inter (re.diff (re.range "\x01" "\xff") (re.range "a" "z")) (re.diff (re.range "\x01" "\xff") (re.range "A" "Z"))) (re.union (re.range "a" "z") (re.range "A" "Z")))))) ((_ re.loop 0 0) (re.diff (re.range "\x01" "\xff") (str.to.re "\n")))))) re.end-anchor))) (str.to.re "\x00"))))	
;match[1]!==null
(assert (not (str.in.re ((_ str.extract 1) var0 (re.union (re.union (re.union (re.union (re.++ re.begin-anchor (re.++ ((_ re.capture 1) (re.++ ((_ re.loop 0 0) (re.diff (re.range "\x01" "\xff") (str.to.re "\n"))) (re.++ ((_ re.capture 2) (re.union ((_ re.capture 3) (re.++ (re.union (re.range "a" "z") (re.range "A" "Z")) (re.inter (re.diff (re.range "\x01" "\xff") (re.range "a" "z")) (re.diff (re.range "\x01" "\xff") (re.range "A" "Z"))))) ((_ re.capture 4) (re.++ (re.inter (re.diff (re.range "\x01" "\xff") (re.range "a" "z")) (re.diff (re.range "\x01" "\xff") (re.range "A" "Z"))) (re.union (re.range "a" "z") (re.range "A" "Z")))))) ((_ re.loop 0 4) (re.diff (re.range "\x01" "\xff") (str.to.re "\n")))))) re.all)) (re.++ ((_ re.capture 5) (re.++ (re.++ (re.*? re.allchar) ((_ re.loop 0 1) (re.diff (re.range "\x01" "\xff") (str.to.re "\n")))) (re.++ ((_ re.capture 6) (re.union ((_ re.capture 7) (re.++ (re.union (re.range "a" "z") (re.range "A" "Z")) (re.inter (re.diff (re.range "\x01" "\xff") (re.range "a" "z")) (re.diff (re.range "\x01" "\xff") (re.range "A" "Z"))))) ((_ re.capture 8) (re.++ (re.inter (re.diff (re.range "\x01" "\xff") (re.range "a" "z")) (re.diff (re.range "\x01" "\xff") (re.range "A" "Z"))) (re.union (re.range "a" "z") (re.range "A" "Z")))))) ((_ re.loop 0 3) (re.diff (re.range "\x01" "\xff") (str.to.re "\n")))))) re.all)) (re.++ ((_ re.capture 9) (re.++ (re.++ (re.*? re.allchar) ((_ re.loop 0 2) (re.diff (re.range "\x01" "\xff") (str.to.re "\n")))) (re.++ ((_ re.capture 10) (re.union ((_ re.capture 11) (re.++ (re.union (re.range "a" "z") (re.range "A" "Z")) (re.inter (re.diff (re.range "\x01" "\xff") (re.range "a" "z")) (re.diff (re.range "\x01" "\xff") (re.range "A" "Z"))))) ((_ re.capture 12) (re.++ (re.inter (re.diff (re.range "\x01" "\xff") (re.range "a" "z")) (re.diff (re.range "\x01" "\xff") (re.range "A" "Z"))) (re.union (re.range "a" "z") (re.range "A" "Z")))))) ((_ re.loop 0 2) (re.diff (re.range "\x01" "\xff") (str.to.re "\n")))))) re.all)) (re.++ ((_ re.capture 13) (re.++ (re.++ (re.*? re.allchar) ((_ re.loop 0 3) (re.diff (re.range "\x01" "\xff") (str.to.re "\n")))) (re.++ ((_ re.capture 14) (re.union ((_ re.capture 15) (re.++ (re.union (re.range "a" "z") (re.range "A" "Z")) (re.inter (re.diff (re.range "\x01" "\xff") (re.range "a" "z")) (re.diff (re.range "\x01" "\xff") (re.range "A" "Z"))))) ((_ re.capture 16) (re.++ (re.inter (re.diff (re.range "\x01" "\xff") (re.range "a" "z")) (re.diff (re.range "\x01" "\xff") (re.range "A" "Z"))) (re.union (re.range "a" "z") (re.range "A" "Z")))))) ((_ re.loop 0 1) (re.diff (re.range "\x01" "\xff") (str.to.re "\n")))))) re.all)) (re.++ ((_ re.capture 17) (re.++ (re.++ (re.*? re.allchar) ((_ re.loop 0 4) (re.diff (re.range "\x01" "\xff") (str.to.re "\n")))) (re.++ ((_ re.capture 18) (re.union ((_ re.capture 19) (re.++ (re.union (re.range "a" "z") (re.range "A" "Z")) (re.inter (re.diff (re.range "\x01" "\xff") (re.range "a" "z")) (re.diff (re.range "\x01" "\xff") (re.range "A" "Z"))))) ((_ re.capture 20) (re.++ (re.inter (re.diff (re.range "\x01" "\xff") (re.range "a" "z")) (re.diff (re.range "\x01" "\xff") (re.range "A" "Z"))) (re.union (re.range "a" "z") (re.range "A" "Z")))))) ((_ re.loop 0 0) (re.diff (re.range "\x01" "\xff") (str.to.re "\n")))))) re.end-anchor))) (re.++ re.all(re.+ (re.range "a" "z")) re.all) )))
;/[a-z]+/.test(match[1]) == false	
(check-sat)
(get-model)
(pop 1)
(push 1)
(assert (str.in.re var0 (re.* (re.range "\x01" "\xff"))))
(assert (str.in.re var0 (re.union (re.union (re.union (re.union (re.++ re.begin-anchor (re.++ ((_ re.capture 1) (re.++ ((_ re.loop 0 0) (re.diff (re.range "\x01" "\xff") (str.to.re "\n"))) (re.++ ((_ re.capture 2) (re.union ((_ re.capture 3) (re.++ (re.union (re.range "a" "z") (re.range "A" "Z")) (re.inter (re.diff (re.range "\x01" "\xff") (re.range "a" "z")) (re.diff (re.range "\x01" "\xff") (re.range "A" "Z"))))) ((_ re.capture 4) (re.++ (re.inter (re.diff (re.range "\x01" "\xff") (re.range "a" "z")) (re.diff (re.range "\x01" "\xff") (re.range "A" "Z"))) (re.union (re.range "a" "z") (re.range "A" "Z")))))) ((_ re.loop 0 4) (re.diff (re.range "\x01" "\xff") (str.to.re "\n")))))) re.all)) (re.++ ((_ re.capture 5) (re.++ (re.++ (re.*? re.allchar) ((_ re.loop 0 1) (re.diff (re.range "\x01" "\xff") (str.to.re "\n")))) (re.++ ((_ re.capture 6) (re.union ((_ re.capture 7) (re.++ (re.union (re.range "a" "z") (re.range "A" "Z")) (re.inter (re.diff (re.range "\x01" "\xff") (re.range "a" "z")) (re.diff (re.range "\x01" "\xff") (re.range "A" "Z"))))) ((_ re.capture 8) (re.++ (re.inter (re.diff (re.range "\x01" "\xff") (re.range "a" "z")) (re.diff (re.range "\x01" "\xff") (re.range "A" "Z"))) (re.union (re.range "a" "z") (re.range "A" "Z")))))) ((_ re.loop 0 3) (re.diff (re.range "\x01" "\xff") (str.to.re "\n")))))) re.all)) (re.++ ((_ re.capture 9) (re.++ (re.++ (re.*? re.allchar) ((_ re.loop 0 2) (re.diff (re.range "\x01" "\xff") (str.to.re "\n")))) (re.++ ((_ re.capture 10) (re.union ((_ re.capture 11) (re.++ (re.union (re.range "a" "z") (re.range "A" "Z")) (re.inter (re.diff (re.range "\x01" "\xff") (re.range "a" "z")) (re.diff (re.range "\x01" "\xff") (re.range "A" "Z"))))) ((_ re.capture 12) (re.++ (re.inter (re.diff (re.range "\x01" "\xff") (re.range "a" "z")) (re.diff (re.range "\x01" "\xff") (re.range "A" "Z"))) (re.union (re.range "a" "z") (re.range "A" "Z")))))) ((_ re.loop 0 2) (re.diff (re.range "\x01" "\xff") (str.to.re "\n")))))) re.all)) (re.++ ((_ re.capture 13) (re.++ (re.++ (re.*? re.allchar) ((_ re.loop 0 3) (re.diff (re.range "\x01" "\xff") (str.to.re "\n")))) (re.++ ((_ re.capture 14) (re.union ((_ re.capture 15) (re.++ (re.union (re.range "a" "z") (re.range "A" "Z")) (re.inter (re.diff (re.range "\x01" "\xff") (re.range "a" "z")) (re.diff (re.range "\x01" "\xff") (re.range "A" "Z"))))) ((_ re.capture 16) (re.++ (re.inter (re.diff (re.range "\x01" "\xff") (re.range "a" "z")) (re.diff (re.range "\x01" "\xff") (re.range "A" "Z"))) (re.union (re.range "a" "z") (re.range "A" "Z")))))) ((_ re.loop 0 1) (re.diff (re.range "\x01" "\xff") (str.to.re "\n")))))) re.all)) (re.++ ((_ re.capture 17) (re.++ (re.++ (re.*? re.allchar) ((_ re.loop 0 4) (re.diff (re.range "\x01" "\xff") (str.to.re "\n")))) (re.++ ((_ re.capture 18) (re.union ((_ re.capture 19) (re.++ (re.union (re.range "a" "z") (re.range "A" "Z")) (re.inter (re.diff (re.range "\x01" "\xff") (re.range "a" "z")) (re.diff (re.range "\x01" "\xff") (re.range "A" "Z"))))) ((_ re.capture 20) (re.++ (re.inter (re.diff (re.range "\x01" "\xff") (re.range "a" "z")) (re.diff (re.range "\x01" "\xff") (re.range "A" "Z"))) (re.union (re.range "a" "z") (re.range "A" "Z")))))) ((_ re.loop 0 0) (re.diff (re.range "\x01" "\xff") (str.to.re "\n")))))) re.end-anchor))))	; match!==null
(assert (str.in.re ((_ str.extract 1) var0 (re.union (re.union (re.union (re.union (re.++ re.begin-anchor (re.++ ((_ re.capture 1) (re.++ ((_ re.loop 0 0) (re.diff (re.range "\x01" "\xff") (str.to.re "\n"))) (re.++ ((_ re.capture 2) (re.union ((_ re.capture 3) (re.++ (re.union (re.range "a" "z") (re.range "A" "Z")) (re.inter (re.diff (re.range "\x01" "\xff") (re.range "a" "z")) (re.diff (re.range "\x01" "\xff") (re.range "A" "Z"))))) ((_ re.capture 4) (re.++ (re.inter (re.diff (re.range "\x01" "\xff") (re.range "a" "z")) (re.diff (re.range "\x01" "\xff") (re.range "A" "Z"))) (re.union (re.range "a" "z") (re.range "A" "Z")))))) ((_ re.loop 0 4) (re.diff (re.range "\x01" "\xff") (str.to.re "\n")))))) re.all)) (re.++ ((_ re.capture 5) (re.++ (re.++ (re.*? re.allchar) ((_ re.loop 0 1) (re.diff (re.range "\x01" "\xff") (str.to.re "\n")))) (re.++ ((_ re.capture 6) (re.union ((_ re.capture 7) (re.++ (re.union (re.range "a" "z") (re.range "A" "Z")) (re.inter (re.diff (re.range "\x01" "\xff") (re.range "a" "z")) (re.diff (re.range "\x01" "\xff") (re.range "A" "Z"))))) ((_ re.capture 8) (re.++ (re.inter (re.diff (re.range "\x01" "\xff") (re.range "a" "z")) (re.diff (re.range "\x01" "\xff") (re.range "A" "Z"))) (re.union (re.range "a" "z") (re.range "A" "Z")))))) ((_ re.loop 0 3) (re.diff (re.range "\x01" "\xff") (str.to.re "\n")))))) re.all)) (re.++ ((_ re.capture 9) (re.++ (re.++ (re.*? re.allchar) ((_ re.loop 0 2) (re.diff (re.range "\x01" "\xff") (str.to.re "\n")))) (re.++ ((_ re.capture 10) (re.union ((_ re.capture 11) (re.++ (re.union (re.range "a" "z") (re.range "A" "Z")) (re.inter (re.diff (re.range "\x01" "\xff") (re.range "a" "z")) (re.diff (re.range "\x01" "\xff") (re.range "A" "Z"))))) ((_ re.capture 12) (re.++ (re.inter (re.diff (re.range "\x01" "\xff") (re.range "a" "z")) (re.diff (re.range "\x01" "\xff") (re.range "A" "Z"))) (re.union (re.range "a" "z") (re.range "A" "Z")))))) ((_ re.loop 0 2) (re.diff (re.range "\x01" "\xff") (str.to.re "\n")))))) re.all)) (re.++ ((_ re.capture 13) (re.++ (re.++ (re.*? re.allchar) ((_ re.loop 0 3) (re.diff (re.range "\x01" "\xff") (str.to.re "\n")))) (re.++ ((_ re.capture 14) (re.union ((_ re.capture 15) (re.++ (re.union (re.range "a" "z") (re.range "A" "Z")) (re.inter (re.diff (re.range "\x01" "\xff") (re.range "a" "z")) (re.diff (re.range "\x01" "\xff") (re.range "A" "Z"))))) ((_ re.capture 16) (re.++ (re.inter (re.diff (re.range "\x01" "\xff") (re.range "a" "z")) (re.diff (re.range "\x01" "\xff") (re.range "A" "Z"))) (re.union (re.range "a" "z") (re.range "A" "Z")))))) ((_ re.loop 0 1) (re.diff (re.range "\x01" "\xff") (str.to.re "\n")))))) re.all)) (re.++ ((_ re.capture 17) (re.++ (re.++ (re.*? re.allchar) ((_ re.loop 0 4) (re.diff (re.range "\x01" "\xff") (str.to.re "\n")))) (re.++ ((_ re.capture 18) (re.union ((_ re.capture 19) (re.++ (re.union (re.range "a" "z") (re.range "A" "Z")) (re.inter (re.diff (re.range "\x01" "\xff") (re.range "a" "z")) (re.diff (re.range "\x01" "\xff") (re.range "A" "Z"))))) ((_ re.capture 20) (re.++ (re.inter (re.diff (re.range "\x01" "\xff") (re.range "a" "z")) (re.diff (re.range "\x01" "\xff") (re.range "A" "Z"))) (re.union (re.range "a" "z") (re.range "A" "Z")))))) ((_ re.loop 0 0) (re.diff (re.range "\x01" "\xff") (str.to.re "\n")))))) re.end-anchor))) (str.to.re "\x00")))
;match[1]==null
(check-sat)
(get-model)
(pop 1)
(push 1)
(assert (str.in.re var0 (re.* (re.range "\x01" "\xff"))))
(assert (not (str.in.re var0 (re.union (re.union (re.union (re.union (re.++ re.begin-anchor (re.++ ((_ re.capture 1) (re.++ ((_ re.loop 0 0) (re.diff (re.range "\x01" "\xff") (str.to.re "\n"))) (re.++ ((_ re.capture 2) (re.union ((_ re.capture 3) (re.++ (re.union (re.range "a" "z") (re.range "A" "Z")) (re.inter (re.diff (re.range "\x01" "\xff") (re.range "a" "z")) (re.diff (re.range "\x01" "\xff") (re.range "A" "Z"))))) ((_ re.capture 4) (re.++ (re.inter (re.diff (re.range "\x01" "\xff") (re.range "a" "z")) (re.diff (re.range "\x01" "\xff") (re.range "A" "Z"))) (re.union (re.range "a" "z") (re.range "A" "Z")))))) ((_ re.loop 0 4) (re.diff (re.range "\x01" "\xff") (str.to.re "\n")))))) re.all)) (re.++ ((_ re.capture 5) (re.++ (re.++ (re.*? re.allchar) ((_ re.loop 0 1) (re.diff (re.range "\x01" "\xff") (str.to.re "\n")))) (re.++ ((_ re.capture 6) (re.union ((_ re.capture 7) (re.++ (re.union (re.range "a" "z") (re.range "A" "Z")) (re.inter (re.diff (re.range "\x01" "\xff") (re.range "a" "z")) (re.diff (re.range "\x01" "\xff") (re.range "A" "Z"))))) ((_ re.capture 8) (re.++ (re.inter (re.diff (re.range "\x01" "\xff") (re.range "a" "z")) (re.diff (re.range "\x01" "\xff") (re.range "A" "Z"))) (re.union (re.range "a" "z") (re.range "A" "Z")))))) ((_ re.loop 0 3) (re.diff (re.range "\x01" "\xff") (str.to.re "\n")))))) re.all)) (re.++ ((_ re.capture 9) (re.++ (re.++ (re.*? re.allchar) ((_ re.loop 0 2) (re.diff (re.range "\x01" "\xff") (str.to.re "\n")))) (re.++ ((_ re.capture 10) (re.union ((_ re.capture 11) (re.++ (re.union (re.range "a" "z") (re.range "A" "Z")) (re.inter (re.diff (re.range "\x01" "\xff") (re.range "a" "z")) (re.diff (re.range "\x01" "\xff") (re.range "A" "Z"))))) ((_ re.capture 12) (re.++ (re.inter (re.diff (re.range "\x01" "\xff") (re.range "a" "z")) (re.diff (re.range "\x01" "\xff") (re.range "A" "Z"))) (re.union (re.range "a" "z") (re.range "A" "Z")))))) ((_ re.loop 0 2) (re.diff (re.range "\x01" "\xff") (str.to.re "\n")))))) re.all)) (re.++ ((_ re.capture 13) (re.++ (re.++ (re.*? re.allchar) ((_ re.loop 0 3) (re.diff (re.range "\x01" "\xff") (str.to.re "\n")))) (re.++ ((_ re.capture 14) (re.union ((_ re.capture 15) (re.++ (re.union (re.range "a" "z") (re.range "A" "Z")) (re.inter (re.diff (re.range "\x01" "\xff") (re.range "a" "z")) (re.diff (re.range "\x01" "\xff") (re.range "A" "Z"))))) ((_ re.capture 16) (re.++ (re.inter (re.diff (re.range "\x01" "\xff") (re.range "a" "z")) (re.diff (re.range "\x01" "\xff") (re.range "A" "Z"))) (re.union (re.range "a" "z") (re.range "A" "Z")))))) ((_ re.loop 0 1) (re.diff (re.range "\x01" "\xff") (str.to.re "\n")))))) re.all)) (re.++ ((_ re.capture 17) (re.++ (re.++ (re.*? re.allchar) ((_ re.loop 0 4) (re.diff (re.range "\x01" "\xff") (str.to.re "\n")))) (re.++ ((_ re.capture 18) (re.union ((_ re.capture 19) (re.++ (re.union (re.range "a" "z") (re.range "A" "Z")) (re.inter (re.diff (re.range "\x01" "\xff") (re.range "a" "z")) (re.diff (re.range "\x01" "\xff") (re.range "A" "Z"))))) ((_ re.capture 20) (re.++ (re.inter (re.diff (re.range "\x01" "\xff") (re.range "a" "z")) (re.diff (re.range "\x01" "\xff") (re.range "A" "Z"))) (re.union (re.range "a" "z") (re.range "A" "Z")))))) ((_ re.loop 0 0) (re.diff (re.range "\x01" "\xff") (str.to.re "\n")))))) re.end-anchor)))))	; match == null
(check-sat)
(get-model)
(pop 1)
(exit)
